
Gurobi 7.0.1 (win64, Python) logging started 11/08/17 11:21:04

Changed value of parameter MIPGap to 0.05
   Prev: 0.0001  Min: 0.0  Max: 1e+100  Default: 0.0001
Changed value of parameter TimeLimit to 1800.0
   Prev: 1e+100  Min: 0.0  Max: 1e+100  Default: 1e+100
Changed value of parameter Method to 2
   Prev: -1  Min: -1  Max: 4  Default: -1
Changed value of parameter MIPFocus to 1
   Prev: 0  Min: 0  Max: 3  Default: 0
Optimize a model with 4414 rows, 6471 columns and 12942 nonzeros
Variable types: 0 continuous, 6471 integer (6471 binary)
Coefficient statistics:
  Matrix range     [1e+00, 5e+00]
  Objective range  [1e+00, 1e+00]
  Bounds range     [1e+00, 1e+00]
  RHS range        [8e+01, 8e+01]
Found heuristic solution: objective 0
Presolve removed 4336 rows and 4485 columns
Presolve time: 0.00s
Presolved: 78 rows, 1986 columns, 3485 nonzeros
Found heuristic solution: objective -1800.765000
Variable types: 0 continuous, 1986 integer (1898 binary)
Presolved: 78 rows, 1986 columns, 3485 nonzeros

Root barrier log...

Ordering time: 0.00s

Barrier statistics:
 AA' NZ     : 1.329e+03
 Factor NZ  : 2.978e+03 (roughly 1 MByte of memory)
 Factor Ops : 1.506e+05 (less than 1 second per iteration)
 Threads    : 1

                  Objective                Residual
Iter       Primal          Dual         Primal    Dual     Compl     Time
   0  -7.03278387e+03 -3.88110422e+03  4.03e+01 4.44e-16  2.55e+00     0s
   1  -2.25643039e+03 -3.26217677e+03  3.35e+00 3.37e-01  5.02e-01     0s
   2  -1.88380496e+03 -2.10937001e+03  3.50e-02 2.14e-02  5.77e-02     0s
   3  -1.92566580e+03 -1.99305975e+03  9.25e-03 2.74e-03  1.72e-02     0s
   4  -1.92946941e+03 -1.96130005e+03  7.30e-03 1.11e-15  8.26e-03     0s
   5  -1.93957458e+03 -1.95471168e+03  3.02e-03 1.11e-15  3.91e-03     0s
   6  -1.94331573e+03 -1.95185397e+03  1.64e-03 1.03e-15  2.20e-03     0s
   7  -1.94606821e+03 -1.94981186e+03  6.91e-04 1.17e-15  9.64e-04     0s
   8  -1.94718921e+03 -1.94900969e+03  3.50e-04 1.21e-15  4.70e-04     0s
   9  -1.94810937e+03 -1.94869495e+03  8.34e-05 1.02e-15  1.50e-04     0s
  10  -1.94828523e+03 -1.94853891e+03  3.81e-05 1.26e-15  6.50e-05     0s
  11  -1.94843541e+03 -1.94846835e+03  2.84e-06 1.22e-15  8.34e-06     0s
  12  -1.94845062e+03 -1.94845288e+03  2.52e-07 1.33e-15  5.77e-07     0s
  13  -1.94845225e+03 -1.94845225e+03  0.00e+00 1.33e-15  5.89e-10     0s

Barrier solved model in 13 iterations and 0.08 seconds
Optimal objective -1.94845225e+03


Root relaxation: objective -1.948452e+03, 41 iterations, 0.05 seconds

    Nodes    |    Current Node    |     Objective Bounds      |     Work
 Expl Unexpl |  Obj  Depth IntInf | Incumbent    BestBd   Gap | It/Node Time

     0     0 -1948.4523    0   40 -1800.7650 -1948.4523  8.20%     -    0s
H    0     0                    -1936.560000 -1948.4523  0.61%     -    0s

Explored 0 nodes (45 simplex iterations) in 0.09 seconds
Thread count was 8 (of 8 available processors)

Solution count 3: -1936.56 -1800.77 -73.835 
Pool objective bound -1948.45

Optimal solution found (tolerance 5.00e-02)
Best objective -1.936560000000e+03, best bound -1.948450000000e+03, gap 0.6140%
Changed value of parameter MIPGap to 0.05
   Prev: 0.0001  Min: 0.0  Max: 1e+100  Default: 0.0001
Changed value of parameter TimeLimit to 1800.0
   Prev: 1e+100  Min: 0.0  Max: 1e+100  Default: 1e+100
Changed value of parameter Method to 2
   Prev: -1  Min: -1  Max: 4  Default: -1
Changed value of parameter MIPFocus to 1
   Prev: 0  Min: 0  Max: 3  Default: 0
Optimize a model with 4414 rows, 6471 columns and 12942 nonzeros
Variable types: 0 continuous, 6471 integer (6471 binary)
Coefficient statistics:
  Matrix range     [1e+00, 5e+00]
  Objective range  [1e+00, 2e+00]
  Bounds range     [1e+00, 1e+00]
  RHS range        [8e+01, 8e+01]
Found heuristic solution: objective 0
Presolve removed 4336 rows and 4485 columns
Presolve time: 0.02s
Presolved: 78 rows, 1986 columns, 3485 nonzeros
Found heuristic solution: objective -1947.530000
Variable types: 0 continuous, 1986 integer (1898 binary)
Presolved: 78 rows, 1986 columns, 3485 nonzeros

Root barrier log...

Ordering time: 0.00s

Barrier statistics:
 AA' NZ     : 1.329e+03
 Factor NZ  : 2.978e+03 (roughly 1 MByte of memory)
 Factor Ops : 1.506e+05 (less than 1 second per iteration)
 Threads    : 1

                  Objective                Residual
Iter       Primal          Dual         Primal    Dual     Compl     Time
   0  -7.48154406e+03 -4.20834034e+03  4.03e+01 4.44e-16  2.79e+00     0s
   1  -2.36868510e+03 -3.52681960e+03  3.07e+00 3.60e-01  5.39e-01     0s
   2  -2.00468909e+03 -2.22781079e+03  0.00e+00 1.92e-02  5.52e-02     0s
   3  -2.05187054e+03 -2.10973004e+03  0.00e+00 1.78e-15  1.43e-02     0s
   4  -2.06620455e+03 -2.09328444e+03  0.00e+00 1.33e-15  6.69e-03     0s
   5  -2.07379538e+03 -2.08754071e+03  0.00e+00 1.19e-15  3.39e-03     0s
   6  -2.07792157e+03 -2.08476628e+03  0.00e+00 1.23e-15  1.69e-03     0s
   7  -2.07984919e+03 -2.08297392e+03  0.00e+00 9.71e-16  7.72e-04     0s
   8  -2.08123926e+03 -2.08246219e+03  0.00e+00 1.17e-15  3.02e-04     0s
   9  -2.08159834e+03 -2.08200662e+03  0.00e+00 1.00e-15  1.01e-04     0s
  10  -2.08178695e+03 -2.08191540e+03  0.00e+00 1.19e-15  3.17e-05     0s
  11  -2.08181707e+03 -2.08182198e+03  0.00e+00 1.25e-15  1.21e-06     0s
  12  -2.08181850e+03 -2.08181851e+03  0.00e+00 1.33e-15  2.54e-09     0s

Barrier solved model in 12 iterations and 0.06 seconds
Optimal objective -2.08181850e+03


Root relaxation: objective -2.081818e+03, 41 iterations, 0.03 seconds

    Nodes    |    Current Node    |     Objective Bounds      |     Work
 Expl Unexpl |  Obj  Depth IntInf | Incumbent    BestBd   Gap | It/Node Time

     0     0 -2081.8185    0   44 -1947.5300 -2081.8185  6.90%     -    0s
H    0     0                    -2066.680000 -2081.8185  0.73%     -    0s

Explored 0 nodes (47 simplex iterations) in 0.09 seconds
Thread count was 8 (of 8 available processors)

Solution count 3: -2066.68 -1947.53 -80.67 
Pool objective bound -2081.81

Optimal solution found (tolerance 5.00e-02)
Best objective -2.066680000000e+03, best bound -2.081810000000e+03, gap 0.7321%
